c This Formular was created for testing purposes
c
c    horn? no
c    forced? no
c    mixed sat? no
c    clause length = 3
c
p cnf
1	-15	17
-33	12	14
7	27	11
10	23	25
2	14	6
30	19	10
5	6	3
15	9	-19
10	16	18
4	26	8
24	-39	31
-34	16	-36
-35	9	20
16	-38	15
-37	29	12
-34	27	13
14	21	-40
32	4	-33
22	-7	24
16	28	27
%
0
